; benchmark generated from python API
(set-info :status unknown)
(declare-fun cell_1_6 () Int)
(declare-fun cell_2_3 () Int)
(declare-fun cell_3_7 () Int)
(declare-fun cell_4_2 () Int)
(declare-fun cell_5_4 () Int)
(declare-fun cell_6_8 () Int)
(declare-fun cell_7_9 () Int)
(declare-fun cell_8_5 () Int)
(declare-fun cell_1_1 () Int)
(declare-fun cell_2_1 () Int)
(declare-fun cell_3_1 () Int)
(declare-fun cell_4_1 () Int)
(declare-fun cell_5_1 () Int)
(declare-fun cell_6_1 () Int)
(declare-fun cell_7_1 () Int)
(declare-fun cell_8_1 () Int)
(declare-fun cell_9_1 () Int)
(declare-fun cell_1_2 () Int)
(declare-fun cell_2_2 () Int)
(declare-fun cell_3_2 () Int)
(declare-fun cell_5_2 () Int)
(declare-fun cell_6_2 () Int)
(declare-fun cell_7_2 () Int)
(declare-fun cell_8_2 () Int)
(declare-fun cell_9_2 () Int)
(declare-fun cell_1_3 () Int)
(declare-fun cell_3_3 () Int)
(declare-fun cell_4_3 () Int)
(declare-fun cell_5_3 () Int)
(declare-fun cell_6_3 () Int)
(declare-fun cell_7_3 () Int)
(declare-fun cell_8_3 () Int)
(declare-fun cell_9_3 () Int)
(declare-fun cell_1_4 () Int)
(declare-fun cell_2_4 () Int)
(declare-fun cell_3_4 () Int)
(declare-fun cell_4_4 () Int)
(declare-fun cell_6_4 () Int)
(declare-fun cell_7_4 () Int)
(declare-fun cell_8_4 () Int)
(declare-fun cell_9_4 () Int)
(declare-fun cell_1_5 () Int)
(declare-fun cell_2_5 () Int)
(declare-fun cell_3_5 () Int)
(declare-fun cell_4_5 () Int)
(declare-fun cell_5_5 () Int)
(declare-fun cell_6_5 () Int)
(declare-fun cell_7_5 () Int)
(declare-fun cell_9_5 () Int)
(declare-fun cell_2_6 () Int)
(declare-fun cell_3_6 () Int)
(declare-fun cell_4_6 () Int)
(declare-fun cell_5_6 () Int)
(declare-fun cell_6_6 () Int)
(declare-fun cell_7_6 () Int)
(declare-fun cell_8_6 () Int)
(declare-fun cell_9_6 () Int)
(declare-fun cell_1_7 () Int)
(declare-fun cell_2_7 () Int)
(declare-fun cell_4_7 () Int)
(declare-fun cell_5_7 () Int)
(declare-fun cell_6_7 () Int)
(declare-fun cell_7_7 () Int)
(declare-fun cell_8_7 () Int)
(declare-fun cell_9_7 () Int)
(declare-fun cell_1_8 () Int)
(declare-fun cell_2_8 () Int)
(declare-fun cell_3_8 () Int)
(declare-fun cell_4_8 () Int)
(declare-fun cell_5_8 () Int)
(declare-fun cell_7_8 () Int)
(declare-fun cell_8_8 () Int)
(declare-fun cell_9_8 () Int)
(declare-fun cell_1_9 () Int)
(declare-fun cell_2_9 () Int)
(declare-fun cell_3_9 () Int)
(declare-fun cell_4_9 () Int)
(declare-fun cell_5_9 () Int)
(declare-fun cell_6_9 () Int)
(declare-fun cell_8_9 () Int)
(declare-fun cell_9_9 () Int)
(assert
 (= cell_1_6 1))
(assert
 (= cell_2_3 1))
(assert
 (= cell_3_7 1))
(assert
 (= cell_4_2 1))
(assert
 (= cell_5_4 1))
(assert
 (= cell_6_8 1))
(assert
 (= cell_7_9 1))
(assert
 (= cell_8_5 1))
(assert
 (let (($x6607 (= cell_1_1 9)))
 (let (($x8756 (= cell_1_1 8)))
 (let (($x93 (= cell_1_1 7)))
 (let (($x7381 (= cell_1_1 6)))
 (let (($x8503 (= cell_1_1 5)))
 (let (($x1827 (= cell_1_1 4)))
 (let (($x6576 (= cell_1_1 3)))
 (let (($x9716 (= cell_1_1 2)))
 (let (($x4612 (= cell_1_1 1)))
 (or $x4612 $x9716 $x6576 $x1827 $x8503 $x7381 $x93 $x8756 $x6607)))))))))))
(assert
 (let (($x8467 (= cell_2_1 9)))
 (let (($x6329 (= cell_2_1 8)))
 (let (($x2844 (= cell_2_1 7)))
 (let (($x4269 (= cell_2_1 6)))
 (let (($x1550 (= cell_2_1 5)))
 (let (($x7215 (= cell_2_1 4)))
 (let (($x2382 (= cell_2_1 3)))
 (let (($x1552 (= cell_2_1 2)))
 (let (($x4847 (= cell_2_1 1)))
 (or $x4847 $x1552 $x2382 $x7215 $x1550 $x4269 $x2844 $x6329 $x8467)))))))))))
(assert
 (let (($x6309 (= cell_3_1 9)))
 (let (($x152 (= cell_3_1 8)))
 (let (($x7472 (= cell_3_1 7)))
 (let (($x4069 (= cell_3_1 6)))
 (let (($x9790 (= cell_3_1 5)))
 (let (($x264 (= cell_3_1 4)))
 (let (($x1880 (= cell_3_1 3)))
 (let (($x7828 (= cell_3_1 2)))
 (let (($x4049 (= cell_3_1 1)))
 (or $x4049 $x7828 $x1880 $x264 $x9790 $x4069 $x7472 $x152 $x6309)))))))))))
(assert
 (let (($x9091 (= cell_4_1 9)))
 (let (($x5431 (= cell_4_1 8)))
 (let (($x7211 (= cell_4_1 7)))
 (let (($x6441 (= cell_4_1 6)))
 (let (($x2145 (= cell_4_1 5)))
 (let (($x1647 (= cell_4_1 4)))
 (let (($x9931 (= cell_4_1 3)))
 (let (($x1512 (= cell_4_1 2)))
 (let (($x5899 (= cell_4_1 1)))
 (or $x5899 $x1512 $x9931 $x1647 $x2145 $x6441 $x7211 $x5431 $x9091)))))))))))
(assert
 (let (($x3276 (= cell_5_1 9)))
 (let (($x6449 (= cell_5_1 8)))
 (let (($x986 (= cell_5_1 7)))
 (let (($x672 (= cell_5_1 6)))
 (let (($x5891 (= cell_5_1 5)))
 (let (($x778 (= cell_5_1 4)))
 (let (($x4994 (= cell_5_1 3)))
 (let (($x937 (= cell_5_1 2)))
 (let (($x4337 (= cell_5_1 1)))
 (or $x4337 $x937 $x4994 $x778 $x5891 $x672 $x986 $x6449 $x3276)))))))))))
(assert
 (let (($x8274 (= cell_6_1 9)))
 (let (($x9654 (= cell_6_1 8)))
 (let (($x1783 (= cell_6_1 7)))
 (let (($x4175 (= cell_6_1 6)))
 (let (($x8051 (= cell_6_1 5)))
 (let (($x9643 (= cell_6_1 4)))
 (let (($x9374 (= cell_6_1 3)))
 (let (($x8161 (= cell_6_1 2)))
 (let (($x6022 (= cell_6_1 1)))
 (or $x6022 $x8161 $x9374 $x9643 $x8051 $x4175 $x1783 $x9654 $x8274)))))))))))
(assert
 (let (($x9172 (= cell_7_1 9)))
 (let (($x1434 (= cell_7_1 8)))
 (let (($x6787 (= cell_7_1 7)))
 (let (($x1296 (= cell_7_1 6)))
 (let (($x8597 (= cell_7_1 5)))
 (let (($x8705 (= cell_7_1 4)))
 (let (($x1119 (= cell_7_1 3)))
 (let (($x4067 (= cell_7_1 2)))
 (let (($x7412 (= cell_7_1 1)))
 (or $x7412 $x4067 $x1119 $x8705 $x8597 $x1296 $x6787 $x1434 $x9172)))))))))))
(assert
 (let (($x10067 (= cell_8_1 9)))
 (let (($x6565 (= cell_8_1 8)))
 (let (($x3319 (= cell_8_1 7)))
 (let (($x9725 (= cell_8_1 6)))
 (let (($x141 (= cell_8_1 5)))
 (let (($x10142 (= cell_8_1 4)))
 (let (($x6625 (= cell_8_1 3)))
 (let (($x7736 (= cell_8_1 2)))
 (let (($x1178 (= cell_8_1 1)))
 (or $x1178 $x7736 $x6625 $x10142 $x141 $x9725 $x3319 $x6565 $x10067)))))))))))
(assert
 (let (($x9241 (= cell_9_1 1)))
 (or $x9241 (= cell_9_1 2) (= cell_9_1 3) (= cell_9_1 4) (= cell_9_1 5) (= cell_9_1 6) (= cell_9_1 7) (= cell_9_1 8) (= cell_9_1 9))))
(assert
 (let (($x5386 (= cell_1_2 9)))
 (let (($x1557 (= cell_1_2 8)))
 (let (($x1220 (= cell_1_2 7)))
 (let (($x3799 (= cell_1_2 6)))
 (let (($x7346 (= cell_1_2 5)))
 (let (($x2867 (= cell_1_2 4)))
 (let (($x7485 (= cell_1_2 3)))
 (let (($x7590 (= cell_1_2 2)))
 (let (($x8834 (= cell_1_2 1)))
 (or $x8834 $x7590 $x7485 $x2867 $x7346 $x3799 $x1220 $x1557 $x5386)))))))))))
(assert
 (let (($x7691 (= cell_2_2 9)))
 (let (($x3814 (= cell_2_2 8)))
 (let (($x6222 (= cell_2_2 7)))
 (let (($x6278 (= cell_2_2 6)))
 (let (($x9077 (= cell_2_2 5)))
 (let (($x8836 (= cell_2_2 4)))
 (let (($x491 (= cell_2_2 3)))
 (let (($x3527 (= cell_2_2 2)))
 (let (($x6120 (= cell_2_2 1)))
 (or $x6120 $x3527 $x491 $x8836 $x9077 $x6278 $x6222 $x3814 $x7691)))))))))))
(assert
 (let (($x4064 (= cell_3_2 9)))
 (let (($x5651 (= cell_3_2 8)))
 (let (($x5402 (= cell_3_2 7)))
 (let (($x914 (= cell_3_2 6)))
 (let (($x4084 (= cell_3_2 5)))
 (let (($x7916 (= cell_3_2 4)))
 (let (($x9067 (= cell_3_2 3)))
 (let (($x9227 (= cell_3_2 2)))
 (let (($x9108 (= cell_3_2 1)))
 (or $x9108 $x9227 $x9067 $x7916 $x4084 $x914 $x5402 $x5651 $x4064)))))))))))
(assert
 (let (($x8514 (= cell_4_2 1)))
 (or $x8514 (= cell_4_2 2) (= cell_4_2 3) (= cell_4_2 4) (= cell_4_2 5) (= cell_4_2 6) (= cell_4_2 7) (= cell_4_2 8) (= cell_4_2 9))))
(assert
 (let (($x29 (= cell_5_2 9)))
 (let (($x9896 (= cell_5_2 8)))
 (let (($x680 (= cell_5_2 7)))
 (let (($x2972 (= cell_5_2 6)))
 (let (($x9853 (= cell_5_2 5)))
 (let (($x2763 (= cell_5_2 4)))
 (let (($x3732 (= cell_5_2 3)))
 (let (($x5077 (= cell_5_2 2)))
 (let (($x4642 (= cell_5_2 1)))
 (or $x4642 $x5077 $x3732 $x2763 $x9853 $x2972 $x680 $x9896 $x29)))))))))))
(assert
 (let (($x4198 (= cell_6_2 9)))
 (let (($x765 (= cell_6_2 8)))
 (let (($x4383 (= cell_6_2 7)))
 (let (($x458 (= cell_6_2 6)))
 (let (($x3184 (= cell_6_2 5)))
 (let (($x3035 (= cell_6_2 4)))
 (let (($x8306 (= cell_6_2 3)))
 (let (($x3329 (= cell_6_2 2)))
 (let (($x3580 (= cell_6_2 1)))
 (or $x3580 $x3329 $x8306 $x3035 $x3184 $x458 $x4383 $x765 $x4198)))))))))))
(assert
 (let (($x9658 (= cell_7_2 9)))
 (let (($x10064 (= cell_7_2 8)))
 (let (($x9544 (= cell_7_2 7)))
 (let (($x9490 (= cell_7_2 6)))
 (let (($x7086 (= cell_7_2 5)))
 (let (($x1231 (= cell_7_2 4)))
 (let (($x2545 (= cell_7_2 3)))
 (let (($x3324 (= cell_7_2 2)))
 (let (($x984 (= cell_7_2 1)))
 (or $x984 $x3324 $x2545 $x1231 $x7086 $x9490 $x9544 $x10064 $x9658)))))))))))
(assert
 (let (($x9387 (= cell_8_2 9)))
 (let (($x3937 (= cell_8_2 8)))
 (let (($x6450 (= cell_8_2 7)))
 (let (($x7078 (= cell_8_2 6)))
 (let (($x4752 (= cell_8_2 5)))
 (let (($x33 (= cell_8_2 4)))
 (let (($x2746 (= cell_8_2 3)))
 (let (($x6131 (= cell_8_2 2)))
 (let (($x9109 (= cell_8_2 1)))
 (or $x9109 $x6131 $x2746 $x33 $x4752 $x7078 $x6450 $x3937 $x9387)))))))))))
(assert
 (let (($x2133 (= cell_9_2 1)))
 (or $x2133 (= cell_9_2 2) (= cell_9_2 3) (= cell_9_2 4) (= cell_9_2 5) (= cell_9_2 6) (= cell_9_2 7) (= cell_9_2 8) (= cell_9_2 9))))
(assert
 (let (($x4840 (= cell_1_3 9)))
 (let (($x10087 (= cell_1_3 8)))
 (let (($x1634 (= cell_1_3 7)))
 (let (($x2624 (= cell_1_3 6)))
 (let (($x4938 (= cell_1_3 5)))
 (let (($x333 (= cell_1_3 4)))
 (let (($x2863 (= cell_1_3 3)))
 (let (($x8056 (= cell_1_3 2)))
 (let (($x5702 (= cell_1_3 1)))
 (or $x5702 $x8056 $x2863 $x333 $x4938 $x2624 $x1634 $x10087 $x4840)))))))))))
(assert
 (let (($x5795 (= cell_2_3 1)))
 (or $x5795 (= cell_2_3 2) (= cell_2_3 3) (= cell_2_3 4) (= cell_2_3 5) (= cell_2_3 6) (= cell_2_3 7) (= cell_2_3 8) (= cell_2_3 9))))
(assert
 (let (($x1208 (= cell_3_3 9)))
 (let (($x7969 (= cell_3_3 8)))
 (let (($x5919 (= cell_3_3 7)))
 (let (($x7230 (= cell_3_3 6)))
 (let (($x8111 (= cell_3_3 5)))
 (let (($x1432 (= cell_3_3 4)))
 (let (($x4432 (= cell_3_3 3)))
 (let (($x7858 (= cell_3_3 2)))
 (let (($x6368 (= cell_3_3 1)))
 (or $x6368 $x7858 $x4432 $x1432 $x8111 $x7230 $x5919 $x7969 $x1208)))))))))))
(assert
 (let (($x10055 (= cell_4_3 9)))
 (let (($x2860 (= cell_4_3 8)))
 (let (($x2505 (= cell_4_3 7)))
 (let (($x5698 (= cell_4_3 6)))
 (let (($x1963 (= cell_4_3 5)))
 (let (($x9804 (= cell_4_3 4)))
 (let (($x1566 (= cell_4_3 3)))
 (let (($x70 (= cell_4_3 2)))
 (let (($x5954 (= cell_4_3 1)))
 (or $x5954 $x70 $x1566 $x9804 $x1963 $x5698 $x2505 $x2860 $x10055)))))))))))
(assert
 (let (($x5894 (= cell_5_3 9)))
 (let (($x10016 (= cell_5_3 8)))
 (let (($x6117 (= cell_5_3 7)))
 (let (($x8389 (= cell_5_3 6)))
 (let (($x5577 (= cell_5_3 5)))
 (let (($x4517 (= cell_5_3 4)))
 (let (($x4326 (= cell_5_3 3)))
 (let (($x4135 (= cell_5_3 2)))
 (let (($x8129 (= cell_5_3 1)))
 (or $x8129 $x4135 $x4326 $x4517 $x5577 $x8389 $x6117 $x10016 $x5894)))))))))))
(assert
 (let (($x1213 (= cell_6_3 9)))
 (let (($x3347 (= cell_6_3 8)))
 (let (($x4426 (= cell_6_3 7)))
 (let (($x4372 (= cell_6_3 6)))
 (let (($x6251 (= cell_6_3 5)))
 (let (($x6060 (= cell_6_3 4)))
 (let (($x4495 (= cell_6_3 3)))
 (let (($x6232 (= cell_6_3 2)))
 (let (($x8660 (= cell_6_3 1)))
 (or $x8660 $x6232 $x4495 $x6060 $x6251 $x4372 $x4426 $x3347 $x1213)))))))))))
(assert
 (let (($x2478 (= cell_7_3 9)))
 (let (($x3705 (= cell_7_3 8)))
 (let (($x4123 (= cell_7_3 7)))
 (let (($x7747 (= cell_7_3 6)))
 (let (($x773 (= cell_7_3 5)))
 (let (($x5620 (= cell_7_3 4)))
 (let (($x9143 (= cell_7_3 3)))
 (let (($x8841 (= cell_7_3 2)))
 (let (($x8208 (= cell_7_3 1)))
 (or $x8208 $x8841 $x9143 $x5620 $x773 $x7747 $x4123 $x3705 $x2478)))))))))))
(assert
 (let (($x8286 (= cell_8_3 9)))
 (let (($x6611 (= cell_8_3 8)))
 (let (($x6639 (= cell_8_3 7)))
 (let (($x1935 (= cell_8_3 6)))
 (let (($x5052 (= cell_8_3 5)))
 (let (($x6986 (= cell_8_3 4)))
 (let (($x8561 (= cell_8_3 3)))
 (let (($x1944 (= cell_8_3 2)))
 (let (($x2865 (= cell_8_3 1)))
 (or $x2865 $x1944 $x8561 $x6986 $x5052 $x1935 $x6639 $x6611 $x8286)))))))))))
(assert
 (let (($x9261 (= cell_9_3 1)))
 (or $x9261 (= cell_9_3 2) (= cell_9_3 3) (= cell_9_3 4) (= cell_9_3 5) (= cell_9_3 6) (= cell_9_3 7) (= cell_9_3 8) (= cell_9_3 9))))
(assert
 (let (($x5539 (= cell_1_4 9)))
 (let (($x9899 (= cell_1_4 8)))
 (let (($x3291 (= cell_1_4 7)))
 (let (($x2080 (= cell_1_4 6)))
 (let (($x2975 (= cell_1_4 5)))
 (let (($x8034 (= cell_1_4 4)))
 (let (($x6493 (= cell_1_4 3)))
 (let (($x5997 (= cell_1_4 2)))
 (let (($x4453 (= cell_1_4 1)))
 (or $x4453 $x5997 $x6493 $x8034 $x2975 $x2080 $x3291 $x9899 $x5539)))))))))))
(assert
 (let (($x5425 (= cell_2_4 9)))
 (let (($x5938 (= cell_2_4 8)))
 (let (($x3164 (= cell_2_4 7)))
 (let (($x8457 (= cell_2_4 6)))
 (let (($x8060 (= cell_2_4 5)))
 (let (($x10203 (= cell_2_4 4)))
 (let (($x2903 (= cell_2_4 3)))
 (let (($x1973 (= cell_2_4 2)))
 (let (($x10225 (= cell_2_4 1)))
 (or $x10225 $x1973 $x2903 $x10203 $x8060 $x8457 $x3164 $x5938 $x5425)))))))))))
(assert
 (let (($x7516 (= cell_3_4 9)))
 (let (($x654 (= cell_3_4 8)))
 (let (($x2351 (= cell_3_4 7)))
 (let (($x4577 (= cell_3_4 6)))
 (let (($x5142 (= cell_3_4 5)))
 (let (($x8234 (= cell_3_4 4)))
 (let (($x4881 (= cell_3_4 3)))
 (let (($x6739 (= cell_3_4 2)))
 (let (($x3289 (= cell_3_4 1)))
 (or $x3289 $x6739 $x4881 $x8234 $x5142 $x4577 $x2351 $x654 $x7516)))))))))))
(assert
 (let (($x10021 (= cell_4_4 9)))
 (let (($x2802 (= cell_4_4 8)))
 (let (($x9309 (= cell_4_4 7)))
 (let (($x3152 (= cell_4_4 6)))
 (let (($x8739 (= cell_4_4 5)))
 (let (($x2714 (= cell_4_4 4)))
 (let (($x3234 (= cell_4_4 3)))
 (let (($x7430 (= cell_4_4 2)))
 (let (($x3288 (= cell_4_4 1)))
 (or $x3288 $x7430 $x3234 $x2714 $x8739 $x3152 $x9309 $x2802 $x10021)))))))))))
(assert
 (let (($x1517 (= cell_5_4 1)))
 (or $x1517 (= cell_5_4 2) (= cell_5_4 3) (= cell_5_4 4) (= cell_5_4 5) (= cell_5_4 6) (= cell_5_4 7) (= cell_5_4 8) (= cell_5_4 9))))
(assert
 (let (($x5383 (= cell_6_4 9)))
 (let (($x757 (= cell_6_4 8)))
 (let (($x8884 (= cell_6_4 7)))
 (let (($x8488 (= cell_6_4 6)))
 (let (($x5523 (= cell_6_4 5)))
 (let (($x9748 (= cell_6_4 4)))
 (let (($x619 (= cell_6_4 3)))
 (let (($x3706 (= cell_6_4 2)))
 (let (($x1035 (= cell_6_4 1)))
 (or $x1035 $x3706 $x619 $x9748 $x5523 $x8488 $x8884 $x757 $x5383)))))))))))
(assert
 (let (($x4740 (= cell_7_4 9)))
 (let (($x10161 (= cell_7_4 8)))
 (let (($x9322 (= cell_7_4 7)))
 (let (($x5569 (= cell_7_4 6)))
 (let (($x8939 (= cell_7_4 5)))
 (let (($x7373 (= cell_7_4 4)))
 (let (($x318 (= cell_7_4 3)))
 (let (($x6928 (= cell_7_4 2)))
 (let (($x7634 (= cell_7_4 1)))
 (or $x7634 $x6928 $x318 $x7373 $x8939 $x5569 $x9322 $x10161 $x4740)))))))))))
(assert
 (let (($x3376 (= cell_8_4 9)))
 (let (($x5328 (= cell_8_4 8)))
 (let (($x4952 (= cell_8_4 7)))
 (let (($x6589 (= cell_8_4 6)))
 (let (($x7537 (= cell_8_4 5)))
 (let (($x7888 (= cell_8_4 4)))
 (let (($x3838 (= cell_8_4 3)))
 (let (($x7418 (= cell_8_4 2)))
 (let (($x8946 (= cell_8_4 1)))
 (or $x8946 $x7418 $x3838 $x7888 $x7537 $x6589 $x4952 $x5328 $x3376)))))))))))
(assert
 (let (($x5766 (= cell_9_4 1)))
 (or $x5766 (= cell_9_4 2) (= cell_9_4 3) (= cell_9_4 4) (= cell_9_4 5) (= cell_9_4 6) (= cell_9_4 7) (= cell_9_4 8) (= cell_9_4 9))))
(assert
 (let (($x4761 (= cell_1_5 9)))
 (let (($x8426 (= cell_1_5 8)))
 (let (($x6538 (= cell_1_5 7)))
 (let (($x3278 (= cell_1_5 6)))
 (let (($x2676 (= cell_1_5 5)))
 (let (($x5156 (= cell_1_5 4)))
 (let (($x3299 (= cell_1_5 3)))
 (let (($x9946 (= cell_1_5 2)))
 (let (($x9260 (= cell_1_5 1)))
 (or $x9260 $x9946 $x3299 $x5156 $x2676 $x3278 $x6538 $x8426 $x4761)))))))))))
(assert
 (let (($x8496 (= cell_2_5 9)))
 (let (($x5132 (= cell_2_5 8)))
 (let (($x1405 (= cell_2_5 7)))
 (let (($x3725 (= cell_2_5 6)))
 (let (($x8771 (= cell_2_5 5)))
 (let (($x9963 (= cell_2_5 4)))
 (let (($x1781 (= cell_2_5 3)))
 (let (($x8718 (= cell_2_5 2)))
 (let (($x7056 (= cell_2_5 1)))
 (or $x7056 $x8718 $x1781 $x9963 $x8771 $x3725 $x1405 $x5132 $x8496)))))))))))
(assert
 (let (($x9097 (= cell_3_5 9)))
 (let (($x10285 (= cell_3_5 8)))
 (let (($x3809 (= cell_3_5 7)))
 (let (($x8290 (= cell_3_5 6)))
 (let (($x3016 (= cell_3_5 5)))
 (let (($x5423 (= cell_3_5 4)))
 (let (($x3176 (= cell_3_5 3)))
 (let (($x2030 (= cell_3_5 2)))
 (let (($x514 (= cell_3_5 1)))
 (or $x514 $x2030 $x3176 $x5423 $x3016 $x8290 $x3809 $x10285 $x9097)))))))))))
(assert
 (let (($x6728 (= cell_4_5 9)))
 (let (($x6039 (= cell_4_5 8)))
 (let (($x7153 (= cell_4_5 7)))
 (let (($x6803 (= cell_4_5 6)))
 (let (($x7099 (= cell_4_5 5)))
 (let (($x8973 (= cell_4_5 4)))
 (let (($x4771 (= cell_4_5 3)))
 (let (($x6733 (= cell_4_5 2)))
 (let (($x1904 (= cell_4_5 1)))
 (or $x1904 $x6733 $x4771 $x8973 $x7099 $x6803 $x7153 $x6039 $x6728)))))))))))
(assert
 (let (($x5951 (= cell_5_5 9)))
 (let (($x1464 (= cell_5_5 8)))
 (let (($x252 (= cell_5_5 7)))
 (let (($x6490 (= cell_5_5 6)))
 (let (($x6664 (= cell_5_5 5)))
 (let (($x9999 (= cell_5_5 4)))
 (let (($x9728 (= cell_5_5 3)))
 (let (($x9284 (= cell_5_5 2)))
 (let (($x2541 (= cell_5_5 1)))
 (or $x2541 $x9284 $x9728 $x9999 $x6664 $x6490 $x252 $x1464 $x5951)))))))))))
(assert
 (let (($x4466 (= cell_6_5 9)))
 (let (($x9693 (= cell_6_5 8)))
 (let (($x6859 (= cell_6_5 7)))
 (let (($x7606 (= cell_6_5 6)))
 (let (($x7017 (= cell_6_5 5)))
 (let (($x4058 (= cell_6_5 4)))
 (let (($x6896 (= cell_6_5 3)))
 (let (($x5487 (= cell_6_5 2)))
 (let (($x463 (= cell_6_5 1)))
 (or $x463 $x5487 $x6896 $x4058 $x7017 $x7606 $x6859 $x9693 $x4466)))))))))))
(assert
 (let (($x8922 (= cell_7_5 9)))
 (let (($x2784 (= cell_7_5 8)))
 (let (($x7830 (= cell_7_5 7)))
 (let (($x1773 (= cell_7_5 6)))
 (let (($x5241 (= cell_7_5 5)))
 (let (($x6554 (= cell_7_5 4)))
 (let (($x2185 (= cell_7_5 3)))
 (let (($x6927 (= cell_7_5 2)))
 (let (($x993 (= cell_7_5 1)))
 (or $x993 $x6927 $x2185 $x6554 $x5241 $x1773 $x7830 $x2784 $x8922)))))))))))
(assert
 (let (($x9958 (= cell_8_5 1)))
 (or $x9958 (= cell_8_5 2) (= cell_8_5 3) (= cell_8_5 4) (= cell_8_5 5) (= cell_8_5 6) (= cell_8_5 7) (= cell_8_5 8) (= cell_8_5 9))))
(assert
 (let (($x3388 (= cell_9_5 1)))
 (or $x3388 (= cell_9_5 2) (= cell_9_5 3) (= cell_9_5 4) (= cell_9_5 5) (= cell_9_5 6) (= cell_9_5 7) (= cell_9_5 8) (= cell_9_5 9))))
(assert
 (let (($x5613 (= cell_1_6 1)))
 (or $x5613 (= cell_1_6 2) (= cell_1_6 3) (= cell_1_6 4) (= cell_1_6 5) (= cell_1_6 6) (= cell_1_6 7) (= cell_1_6 8) (= cell_1_6 9))))
(assert
 (let (($x6582 (= cell_2_6 9)))
 (let (($x4493 (= cell_2_6 8)))
 (let (($x9911 (= cell_2_6 7)))
 (let (($x6686 (= cell_2_6 6)))
 (let (($x6073 (= cell_2_6 5)))
 (let (($x8067 (= cell_2_6 4)))
 (let (($x1651 (= cell_2_6 3)))
 (let (($x8741 (= cell_2_6 2)))
 (let (($x2469 (= cell_2_6 1)))
 (or $x2469 $x8741 $x1651 $x8067 $x6073 $x6686 $x9911 $x4493 $x6582)))))))))))
(assert
 (let (($x4728 (= cell_3_6 9)))
 (let (($x6995 (= cell_3_6 8)))
 (let (($x347 (= cell_3_6 7)))
 (let (($x9971 (= cell_3_6 6)))
 (let (($x7136 (= cell_3_6 5)))
 (let (($x9754 (= cell_3_6 4)))
 (let (($x8757 (= cell_3_6 3)))
 (let (($x4486 (= cell_3_6 2)))
 (let (($x5500 (= cell_3_6 1)))
 (or $x5500 $x4486 $x8757 $x9754 $x7136 $x9971 $x347 $x6995 $x4728)))))))))))
(assert
 (let (($x2707 (= cell_4_6 9)))
 (let (($x3924 (= cell_4_6 8)))
 (let (($x3796 (= cell_4_6 7)))
 (let (($x5665 (= cell_4_6 6)))
 (let (($x5892 (= cell_4_6 5)))
 (let (($x8760 (= cell_4_6 4)))
 (let (($x7182 (= cell_4_6 3)))
 (let (($x8244 (= cell_4_6 2)))
 (let (($x3930 (= cell_4_6 1)))
 (or $x3930 $x8244 $x7182 $x8760 $x5892 $x5665 $x3796 $x3924 $x2707)))))))))))
(assert
 (let (($x2892 (= cell_5_6 1)))
 (or $x2892 (= cell_5_6 2) (= cell_5_6 3) (= cell_5_6 4) (= cell_5_6 5) (= cell_5_6 6) (= cell_5_6 7) (= cell_5_6 8) (= cell_5_6 9))))
(assert
 (let (($x7988 (= cell_6_6 9)))
 (let (($x4950 (= cell_6_6 8)))
 (let (($x5592 (= cell_6_6 7)))
 (let (($x2895 (= cell_6_6 6)))
 (let (($x6327 (= cell_6_6 5)))
 (let (($x9231 (= cell_6_6 4)))
 (let (($x3030 (= cell_6_6 3)))
 (let (($x6756 (= cell_6_6 2)))
 (let (($x6561 (= cell_6_6 1)))
 (or $x6561 $x6756 $x3030 $x9231 $x6327 $x2895 $x5592 $x4950 $x7988)))))))))))
(assert
 (let (($x4239 (= cell_7_6 9)))
 (let (($x5000 (= cell_7_6 8)))
 (let (($x3426 (= cell_7_6 7)))
 (let (($x7853 (= cell_7_6 6)))
 (let (($x8157 (= cell_7_6 5)))
 (let (($x8230 (= cell_7_6 4)))
 (let (($x6575 (= cell_7_6 3)))
 (let (($x3532 (= cell_7_6 2)))
 (let (($x5575 (= cell_7_6 1)))
 (or $x5575 $x3532 $x6575 $x8230 $x8157 $x7853 $x3426 $x5000 $x4239)))))))))))
(assert
 (let (($x6017 (= cell_8_6 1)))
 (or $x6017 (= cell_8_6 2) (= cell_8_6 3) (= cell_8_6 4) (= cell_8_6 5) (= cell_8_6 6) (= cell_8_6 7) (= cell_8_6 8) (= cell_8_6 9))))
(assert
 (let (($x3567 (= cell_9_6 1)))
 (or $x3567 (= cell_9_6 2) (= cell_9_6 3) (= cell_9_6 4) (= cell_9_6 5) (= cell_9_6 6) (= cell_9_6 7) (= cell_9_6 8) (= cell_9_6 9))))
(assert
 (let (($x9298 (= cell_1_7 9)))
 (let (($x3592 (= cell_1_7 8)))
 (let (($x10060 (= cell_1_7 7)))
 (let (($x3839 (= cell_1_7 6)))
 (let (($x7700 (= cell_1_7 5)))
 (let (($x5458 (= cell_1_7 4)))
 (let (($x307 (= cell_1_7 3)))
 (let (($x3464 (= cell_1_7 2)))
 (let (($x4044 (= cell_1_7 1)))
 (or $x4044 $x3464 $x307 $x5458 $x7700 $x3839 $x10060 $x3592 $x9298)))))))))))
(assert
 (let (($x9679 (= cell_2_7 9)))
 (let (($x8493 (= cell_2_7 8)))
 (let (($x7366 (= cell_2_7 7)))
 (let (($x5661 (= cell_2_7 6)))
 (let (($x5083 (= cell_2_7 5)))
 (let (($x4978 (= cell_2_7 4)))
 (let (($x253 (= cell_2_7 3)))
 (let (($x8528 (= cell_2_7 2)))
 (let (($x646 (= cell_2_7 1)))
 (or $x646 $x8528 $x253 $x4978 $x5083 $x5661 $x7366 $x8493 $x9679)))))))))))
(assert
 (let (($x9202 (= cell_3_7 1)))
 (or $x9202 (= cell_3_7 2) (= cell_3_7 3) (= cell_3_7 4) (= cell_3_7 5) (= cell_3_7 6) (= cell_3_7 7) (= cell_3_7 8) (= cell_3_7 9))))
(assert
 (let (($x10202 (= cell_4_7 9)))
 (let (($x1415 (= cell_4_7 8)))
 (let (($x3501 (= cell_4_7 7)))
 (let (($x3458 (= cell_4_7 6)))
 (let (($x5672 (= cell_4_7 5)))
 (let (($x1044 (= cell_4_7 4)))
 (let (($x4652 (= cell_4_7 3)))
 (let (($x5304 (= cell_4_7 2)))
 (let (($x2431 (= cell_4_7 1)))
 (or $x2431 $x5304 $x4652 $x1044 $x5672 $x3458 $x3501 $x1415 $x10202)))))))))))
(assert
 (let (($x2510 (= cell_5_7 9)))
 (let (($x3959 (= cell_5_7 8)))
 (let (($x1052 (= cell_5_7 7)))
 (let (($x3744 (= cell_5_7 6)))
 (let (($x2918 (= cell_5_7 5)))
 (let (($x6046 (= cell_5_7 4)))
 (let (($x3062 (= cell_5_7 3)))
 (let (($x1509 (= cell_5_7 2)))
 (let (($x4068 (= cell_5_7 1)))
 (or $x4068 $x1509 $x3062 $x6046 $x2918 $x3744 $x1052 $x3959 $x2510)))))))))))
(assert
 (let (($x7783 (= cell_6_7 9)))
 (let (($x2205 (= cell_6_7 8)))
 (let (($x5159 (= cell_6_7 7)))
 (let (($x2769 (= cell_6_7 6)))
 (let (($x4565 (= cell_6_7 5)))
 (let (($x5135 (= cell_6_7 4)))
 (let (($x4116 (= cell_6_7 3)))
 (let (($x2990 (= cell_6_7 2)))
 (let (($x3085 (= cell_6_7 1)))
 (or $x3085 $x2990 $x4116 $x5135 $x4565 $x2769 $x5159 $x2205 $x7783)))))))))))
(assert
 (let (($x78 (= cell_7_7 9)))
 (let (($x9210 (= cell_7_7 8)))
 (let (($x7732 (= cell_7_7 7)))
 (let (($x6264 (= cell_7_7 6)))
 (let (($x5154 (= cell_7_7 5)))
 (let (($x3377 (= cell_7_7 4)))
 (let (($x6525 (= cell_7_7 3)))
 (let (($x5876 (= cell_7_7 2)))
 (let (($x6211 (= cell_7_7 1)))
 (or $x6211 $x5876 $x6525 $x3377 $x5154 $x6264 $x7732 $x9210 $x78)))))))))))
(assert
 (let (($x9358 (= cell_8_7 1)))
 (or $x9358 (= cell_8_7 2) (= cell_8_7 3) (= cell_8_7 4) (= cell_8_7 5) (= cell_8_7 6) (= cell_8_7 7) (= cell_8_7 8) (= cell_8_7 9))))
(assert
 (let (($x1148 (= cell_9_7 1)))
 (or $x1148 (= cell_9_7 2) (= cell_9_7 3) (= cell_9_7 4) (= cell_9_7 5) (= cell_9_7 6) (= cell_9_7 7) (= cell_9_7 8) (= cell_9_7 9))))
(assert
 (let (($x8042 (= cell_1_8 9)))
 (let (($x2404 (= cell_1_8 8)))
 (let (($x7701 (= cell_1_8 7)))
 (let (($x9743 (= cell_1_8 6)))
 (let (($x8143 (= cell_1_8 5)))
 (let (($x7676 (= cell_1_8 4)))
 (let (($x335 (= cell_1_8 3)))
 (let (($x2230 (= cell_1_8 2)))
 (let (($x9021 (= cell_1_8 1)))
 (or $x9021 $x2230 $x335 $x7676 $x8143 $x9743 $x7701 $x2404 $x8042)))))))))))
(assert
 (let (($x3895 (= cell_2_8 9)))
 (let (($x9338 (= cell_2_8 8)))
 (let (($x4127 (= cell_2_8 7)))
 (let (($x3507 (= cell_2_8 6)))
 (let (($x10114 (= cell_2_8 5)))
 (let (($x1061 (= cell_2_8 4)))
 (let (($x6809 (= cell_2_8 3)))
 (let (($x6590 (= cell_2_8 2)))
 (let (($x8870 (= cell_2_8 1)))
 (or $x8870 $x6590 $x6809 $x1061 $x10114 $x3507 $x4127 $x9338 $x3895)))))))))))
(assert
 (let (($x4875 (= cell_3_8 9)))
 (let (($x3980 (= cell_3_8 8)))
 (let (($x5827 (= cell_3_8 7)))
 (let (($x4496 (= cell_3_8 6)))
 (let (($x7880 (= cell_3_8 5)))
 (let (($x2985 (= cell_3_8 4)))
 (let (($x3214 (= cell_3_8 3)))
 (let (($x1525 (= cell_3_8 2)))
 (let (($x1329 (= cell_3_8 1)))
 (or $x1329 $x1525 $x3214 $x2985 $x7880 $x4496 $x5827 $x3980 $x4875)))))))))))
(assert
 (let (($x1086 (= cell_4_8 9)))
 (let (($x6361 (= cell_4_8 8)))
 (let (($x7774 (= cell_4_8 7)))
 (let (($x4885 (= cell_4_8 6)))
 (let (($x834 (= cell_4_8 5)))
 (let (($x327 (= cell_4_8 4)))
 (let (($x8050 (= cell_4_8 3)))
 (let (($x9464 (= cell_4_8 2)))
 (let (($x4581 (= cell_4_8 1)))
 (or $x4581 $x9464 $x8050 $x327 $x834 $x4885 $x7774 $x6361 $x1086)))))))))))
(assert
 (let (($x9318 (= cell_5_8 9)))
 (let (($x9187 (= cell_5_8 8)))
 (let (($x2303 (= cell_5_8 7)))
 (let (($x5940 (= cell_5_8 6)))
 (let (($x1112 (= cell_5_8 5)))
 (let (($x6065 (= cell_5_8 4)))
 (let (($x2988 (= cell_5_8 3)))
 (let (($x5097 (= cell_5_8 2)))
 (let (($x9290 (= cell_5_8 1)))
 (or $x9290 $x5097 $x2988 $x6065 $x1112 $x5940 $x2303 $x9187 $x9318)))))))))))
(assert
 (let (($x5308 (= cell_6_8 1)))
 (or $x5308 (= cell_6_8 2) (= cell_6_8 3) (= cell_6_8 4) (= cell_6_8 5) (= cell_6_8 6) (= cell_6_8 7) (= cell_6_8 8) (= cell_6_8 9))))
(assert
 (let (($x2153 (= cell_7_8 9)))
 (let (($x7463 (= cell_7_8 8)))
 (let (($x3680 (= cell_7_8 7)))
 (let (($x2130 (= cell_7_8 6)))
 (let (($x9396 (= cell_7_8 5)))
 (let (($x2607 (= cell_7_8 4)))
 (let (($x7464 (= cell_7_8 3)))
 (let (($x7490 (= cell_7_8 2)))
 (let (($x3900 (= cell_7_8 1)))
 (or $x3900 $x7490 $x7464 $x2607 $x9396 $x2130 $x3680 $x7463 $x2153)))))))))))
(assert
 (let (($x3076 (= cell_8_8 1)))
 (or $x3076 (= cell_8_8 2) (= cell_8_8 3) (= cell_8_8 4) (= cell_8_8 5) (= cell_8_8 6) (= cell_8_8 7) (= cell_8_8 8) (= cell_8_8 9))))
(assert
 (let (($x7962 (= cell_9_8 1)))
 (or $x7962 (= cell_9_8 2) (= cell_9_8 3) (= cell_9_8 4) (= cell_9_8 5) (= cell_9_8 6) (= cell_9_8 7) (= cell_9_8 8) (= cell_9_8 9))))
(assert
 (let (($x9641 (= cell_1_9 9)))
 (let (($x727 (= cell_1_9 8)))
 (let (($x6466 (= cell_1_9 7)))
 (let (($x6882 (= cell_1_9 6)))
 (let (($x7995 (= cell_1_9 5)))
 (let (($x38 (= cell_1_9 4)))
 (let (($x5753 (= cell_1_9 3)))
 (let (($x7109 (= cell_1_9 2)))
 (let (($x7411 (= cell_1_9 1)))
 (or $x7411 $x7109 $x5753 $x38 $x7995 $x6882 $x6466 $x727 $x9641)))))))))))
(assert
 (let (($x3178 (= cell_2_9 9)))
 (let (($x5162 (= cell_2_9 8)))
 (let (($x2598 (= cell_2_9 7)))
 (let (($x7352 (= cell_2_9 6)))
 (let (($x3715 (= cell_2_9 5)))
 (let (($x971 (= cell_2_9 4)))
 (let (($x1962 (= cell_2_9 3)))
 (let (($x1347 (= cell_2_9 2)))
 (let (($x807 (= cell_2_9 1)))
 (or $x807 $x1347 $x1962 $x971 $x3715 $x7352 $x2598 $x5162 $x3178)))))))))))
(assert
 (let (($x2210 (= cell_3_9 9)))
 (let (($x2980 (= cell_3_9 8)))
 (let (($x5145 (= cell_3_9 7)))
 (let (($x582 (= cell_3_9 6)))
 (let (($x7555 (= cell_3_9 5)))
 (let (($x9022 (= cell_3_9 4)))
 (let (($x6026 (= cell_3_9 3)))
 (let (($x1549 (= cell_3_9 2)))
 (let (($x9443 (= cell_3_9 1)))
 (or $x9443 $x1549 $x6026 $x9022 $x7555 $x582 $x5145 $x2980 $x2210)))))))))))
(assert
 (let (($x599 (= cell_4_9 9)))
 (let (($x9013 (= cell_4_9 8)))
 (let (($x576 (= cell_4_9 7)))
 (let (($x6183 (= cell_4_9 6)))
 (let (($x174 (= cell_4_9 5)))
 (let (($x5201 (= cell_4_9 4)))
 (let (($x5907 (= cell_4_9 3)))
 (let (($x9419 (= cell_4_9 2)))
 (let (($x7239 (= cell_4_9 1)))
 (or $x7239 $x9419 $x5907 $x5201 $x174 $x6183 $x576 $x9013 $x599)))))))))))
(assert
 (let (($x3675 (= cell_5_9 9)))
 (let (($x7575 (= cell_5_9 8)))
 (let (($x7491 (= cell_5_9 7)))
 (let (($x3304 (= cell_5_9 6)))
 (let (($x3551 (= cell_5_9 5)))
 (let (($x8150 (= cell_5_9 4)))
 (let (($x928 (= cell_5_9 3)))
 (let (($x257 (= cell_5_9 2)))
 (let (($x9587 (= cell_5_9 1)))
 (or $x9587 $x257 $x928 $x8150 $x3551 $x3304 $x7491 $x7575 $x3675)))))))))))
(assert
 (let (($x3941 (= cell_6_9 9)))
 (let (($x4008 (= cell_6_9 8)))
 (let (($x526 (= cell_6_9 7)))
 (let (($x8888 (= cell_6_9 6)))
 (let (($x9719 (= cell_6_9 5)))
 (let (($x7405 (= cell_6_9 4)))
 (let (($x7837 (= cell_6_9 3)))
 (let (($x2136 (= cell_6_9 2)))
 (let (($x2566 (= cell_6_9 1)))
 (or $x2566 $x2136 $x7837 $x7405 $x9719 $x8888 $x526 $x4008 $x3941)))))))))))
(assert
 (let (($x5541 (= cell_7_9 1)))
 (or $x5541 (= cell_7_9 2) (= cell_7_9 3) (= cell_7_9 4) (= cell_7_9 5) (= cell_7_9 6) (= cell_7_9 7) (= cell_7_9 8) (= cell_7_9 9))))
(assert
 (let (($x2685 (= cell_8_9 1)))
 (or $x2685 (= cell_8_9 2) (= cell_8_9 3) (= cell_8_9 4) (= cell_8_9 5) (= cell_8_9 6) (= cell_8_9 7) (= cell_8_9 8) (= cell_8_9 9))))
(assert
 (let (($x9181 (= cell_9_9 1)))
 (or $x9181 (= cell_9_9 2) (= cell_9_9 3) (= cell_9_9 4) (= cell_9_9 5) (= cell_9_9 6) (= cell_9_9 7) (= cell_9_9 8) (= cell_9_9 9))))
(assert
 (and (distinct cell_1_1 cell_1_2 cell_1_3 cell_1_4 cell_1_5 cell_1_6 cell_1_7 cell_1_8 cell_1_9) true))
(assert
 (and (distinct cell_2_1 cell_2_2 cell_2_3 cell_2_4 cell_2_5 cell_2_6 cell_2_7 cell_2_8 cell_2_9) true))
(assert
 (and (distinct cell_3_1 cell_3_2 cell_3_3 cell_3_4 cell_3_5 cell_3_6 cell_3_7 cell_3_8 cell_3_9) true))
(assert
 (and (distinct cell_4_1 cell_4_2 cell_4_3 cell_4_4 cell_4_5 cell_4_6 cell_4_7 cell_4_8 cell_4_9) true))
(assert
 (and (distinct cell_5_1 cell_5_2 cell_5_3 cell_5_4 cell_5_5 cell_5_6 cell_5_7 cell_5_8 cell_5_9) true))
(assert
 (and (distinct cell_6_1 cell_6_2 cell_6_3 cell_6_4 cell_6_5 cell_6_6 cell_6_7 cell_6_8 cell_6_9) true))
(assert
 (and (distinct cell_7_1 cell_7_2 cell_7_3 cell_7_4 cell_7_5 cell_7_6 cell_7_7 cell_7_8 cell_7_9) true))
(assert
 (and (distinct cell_8_1 cell_8_2 cell_8_3 cell_8_4 cell_8_5 cell_8_6 cell_8_7 cell_8_8 cell_8_9) true))
(assert
 (and (distinct cell_9_1 cell_9_2 cell_9_3 cell_9_4 cell_9_5 cell_9_6 cell_9_7 cell_9_8 cell_9_9) true))
(assert
 (and (distinct cell_1_1 cell_2_1 cell_3_1 cell_4_1 cell_5_1 cell_6_1 cell_7_1 cell_8_1 cell_9_1) true))
(assert
 (and (distinct cell_1_2 cell_2_2 cell_3_2 cell_4_2 cell_5_2 cell_6_2 cell_7_2 cell_8_2 cell_9_2) true))
(assert
 (and (distinct cell_1_3 cell_2_3 cell_3_3 cell_4_3 cell_5_3 cell_6_3 cell_7_3 cell_8_3 cell_9_3) true))
(assert
 (and (distinct cell_1_4 cell_2_4 cell_3_4 cell_4_4 cell_5_4 cell_6_4 cell_7_4 cell_8_4 cell_9_4) true))
(assert
 (and (distinct cell_1_5 cell_2_5 cell_3_5 cell_4_5 cell_5_5 cell_6_5 cell_7_5 cell_8_5 cell_9_5) true))
(assert
 (and (distinct cell_1_6 cell_2_6 cell_3_6 cell_4_6 cell_5_6 cell_6_6 cell_7_6 cell_8_6 cell_9_6) true))
(assert
 (and (distinct cell_1_7 cell_2_7 cell_3_7 cell_4_7 cell_5_7 cell_6_7 cell_7_7 cell_8_7 cell_9_7) true))
(assert
 (and (distinct cell_1_8 cell_2_8 cell_3_8 cell_4_8 cell_5_8 cell_6_8 cell_7_8 cell_8_8 cell_9_8) true))
(assert
 (and (distinct cell_1_9 cell_2_9 cell_3_9 cell_4_9 cell_5_9 cell_6_9 cell_7_9 cell_8_9 cell_9_9) true))
(assert
 (and (distinct cell_1_1 cell_1_2 cell_1_3 cell_2_1 cell_2_2 cell_2_3 cell_3_1 cell_3_2 cell_3_3) true))
(assert
 (and (distinct cell_1_4 cell_1_5 cell_1_6 cell_2_4 cell_2_5 cell_2_6 cell_3_4 cell_3_5 cell_3_6) true))
(assert
 (and (distinct cell_1_7 cell_1_8 cell_1_9 cell_2_7 cell_2_8 cell_2_9 cell_3_7 cell_3_8 cell_3_9) true))
(assert
 (and (distinct cell_4_1 cell_4_2 cell_4_3 cell_5_1 cell_5_2 cell_5_3 cell_6_1 cell_6_2 cell_6_3) true))
(assert
 (and (distinct cell_4_4 cell_4_5 cell_4_6 cell_5_4 cell_5_5 cell_5_6 cell_6_4 cell_6_5 cell_6_6) true))
(assert
 (and (distinct cell_4_7 cell_4_8 cell_4_9 cell_5_7 cell_5_8 cell_5_9 cell_6_7 cell_6_8 cell_6_9) true))
(assert
 (and (distinct cell_7_1 cell_7_2 cell_7_3 cell_8_1 cell_8_2 cell_8_3 cell_9_1 cell_9_2 cell_9_3) true))
(assert
 (and (distinct cell_7_4 cell_7_5 cell_7_6 cell_8_4 cell_8_5 cell_8_6 cell_9_4 cell_9_5 cell_9_6) true))
(assert
 (and (distinct cell_7_7 cell_7_8 cell_7_9 cell_8_7 cell_8_8 cell_8_9 cell_9_7 cell_9_8 cell_9_9) true))
(assert
 (let (($x8701 (and (distinct cell_5_9 cell_6_8 cell_7_7 cell_8_6) true)))
 (let (($x4695 (and (distinct cell_2_9 cell_3_8 cell_4_7 cell_5_6 cell_6_5 cell_7_4 cell_8_3 cell_9_2) true)))
 (let (($x3074 (and (distinct cell_1_8 cell_2_7 cell_3_6 cell_4_5 cell_5_4 cell_6_3 cell_7_2 cell_8_1) true)))
 (let (($x3219 (and (distinct cell_1_5 cell_2_4 cell_3_3 cell_4_2) true)))
 (let (($x7720 (and (distinct cell_5_1 cell_6_2 cell_7_3 cell_8_4) true)))
 (let (($x784 (and (distinct cell_2_1 cell_3_2 cell_4_3 cell_5_4 cell_6_5 cell_7_6 cell_8_7 cell_9_8) true)))
 (let (($x8588 (and (distinct cell_1_2 cell_2_3 cell_3_4 cell_4_5 cell_5_6 cell_6_7 cell_7_8 cell_8_9) true)))
 (let (($x7263 (and (distinct cell_1_5 cell_2_6 cell_3_7 cell_4_8) true)))
 (and $x7263 $x8588 $x784 $x7720 $x3219 $x3074 $x4695 $x8701))))))))))
(assert
 (= cell_9_1 1))
(check-sat)
